n_res = 4;
rc = [ 23, 23, 23, 20 ];
n_tasks = 30;
d = [ 6, 5, 7, 7, 4, 9, 9, 5, 4, 2, 10, 7, 7, 1, 3, 6, 2, 5, 10, 4, 1, 4, 8, 2, 7, 3, 9, 9, 3, 5 ];
rr = [| 1, 0, 0, 9, 0, 5, 6, 6, 5, 1, 0, 7, 5, 4, 5, 2, 1, 9, 8, 7, 9, 8, 1, 0, 10, 9, 6, 5, 1, 0
      | 7, 0, 6, 8, 5, 0, 5, 0, 0, 10, 2, 0, 10, 1, 5, 2, 4, 10, 0, 10, 0, 6, 8, 9, 1, 3, 0, 10, 0, 0
      | 6, 0, 9, 6, 7, 3, 0, 0, 9, 0, 7, 6, 0, 3, 1, 7, 9, 7, 6, 8, 9, 2, 8, 5, 6, 7, 5, 2, 9, 3
      | 0, 4, 5, 0, 0, 5, 8, 1, 0, 5, 10, 8, 8, 3, 10, 5, 0, 0, 7, 8, 7, 1, 5, 2, 10, 7, 9, 0, 9, 0 |];
suc = [ { 2 }, 
        { 3 }, 
        { 4 }, 
        { 5 }, 
        { 6 }, 
        { 7 }, 
        { 8 }, 
        { 9 }, 
        { 10 }, 
        { 11 }, 
        { 12 }, 
        { 13 }, 
        { 14 }, 
        { 15 }, 
        { 16 }, 
        { 17 }, 
        { 18 }, 
        { 19 }, 
        { 20 }, 
        { 21 }, 
        { 22 }, 
        { 23 }, 
        { 24 }, 
        { 25 }, 
        { 26 }, 
        { 27 }, 
        { 28 }, 
        { 29 }, 
        { 30 }, 
        {  }]; 
